95 -1 2 -3 0 7 0
96 -1 2 3 -4 0 8 0
97 -1 2 3 4 -5 0 9 0
98 -1 2 3 4 5 -16 -17 0 36 0
99 -1 2 3 4 5 16 -17 -18 0 40 0
100 -1 2 3 4 5 16 -17 18 -19 0 41 0
101 -1 2 3 4 5 16 -17 18 19 -20 0 42 0
102 -1 2 3 4 5 -11 -13 16 -17 18 19 20 0 27 0
103 -1 2 3 4 5 11 -12 -13 16 -17 18 19 20 0 30 0
104 -1 2 3 4 5 11 12 -13 16 -17 18 19 20 -23 0 53 54 33 34 4 5 25 0
105 -1 2 3 4 5 11 12 -13 -14 16 -17 18 19 20 23 0 33 0
106 -1 2 3 4 5 11 12 -13 14 -15 16 -17 18 19 20 23 0 34 0
107 -1 2 3 4 5 -6 11 12 -13 14 15 16 -17 18 19 20 23 -25 0 55 18 4 0
108 -1 2 3 4 5 6 11 12 -13 14 15 16 -17 18 19 20 -21 23 -25 0 49 0
109 -1 2 3 4 5 6 -7 11 12 -13 14 15 16 -17 18 19 20 21 23 -25 0 55 21 4 0
110 -1 2 3 4 5 6 7 11 12 -13 14 15 16 -17 18 19 20 21 -22 23 -25 0 52 0
111 -1 2 3 4 5 6 7 -8 11 12 -13 14 15 16 -17 18 19 20 21 22 23 -25 0 55 23 4 0
112 -1 2 3 4 5 6 7 8 9 11 12 -13 14 15 16 -17 18 19 20 21 22 23 -25 0 55 4 0
113 -1 2 3 4 5 6 7 8 -9 11 12 -13 14 15 16 -17 18 19 20 21 22 23 -24 -25 0 55 0
114 -1 2 3 4 5 6 7 8 -9 -10 11 12 -13 14 15 16 -17 18 19 20 21 22 23 24 -25 0 25 0
115 -1 2 3 4 5 -6 11 12 -13 14 15 16 -17 18 19 20 23 25 0 19 5 0
116 -1 2 3 4 5 6 11 12 -13 14 15 16 -17 18 19 20 -21 23 25 0 48 5 4 25 0
117 -1 2 3 4 5 6 -7 11 12 -13 14 15 16 -17 18 19 20 21 23 25 0 5 22 0
118 -1 2 3 4 5 6 7 11 12 -13 14 15 16 -17 18 19 20 21 -22 23 25 0 51 5 4 25 0
119 -1 2 3 4 5 6 7 -8 11 12 -13 14 15 16 -17 18 19 20 21 22 23 25 0 5 24 0
120 -1 2 3 4 5 6 7 8 -9 11 12 -13 14 15 16 -17 18 19 20 21 22 23 25 0 25 5 0
121 -1 2 3 4 5 6 7 8 9 11 12 -13 14 15 16 -17 18 19 20 21 22 23 24 25 0 4 0
122 -1 2 3 4 5 6 7 8 9 10 11 12 -13 14 15 16 -17 18 19 20 21 22 23 -24 25 0 5 0
123 -1 2 3 4 5 13 16 -17 18 19 20 -21 -23 0 47 0
124 -1 2 3 4 5 13 16 -17 18 19 20 21 -22 -23 0 50 0
125 -1 2 3 4 5 13 16 -17 18 19 20 21 22 -23 -24 0 53 0
126 -1 2 3 4 5 13 16 -17 18 19 20 21 22 -23 24 -25 0 54 0
127 -1 2 3 4 5 -6 13 -15 16 -17 18 19 20 21 22 -23 24 25 0 35 18 4 0
128 -1 2 3 4 5 6 -11 13 -15 16 -17 18 19 20 21 22 -23 24 25 0 29 0
129 -1 2 3 4 5 6 11 -12 13 -15 16 -17 18 19 20 21 22 -23 24 25 0 32 0
130 -1 2 3 4 5 6 -7 11 12 13 -15 16 -17 18 19 20 21 22 -23 24 25 0 35 21 4 0
131 -1 2 3 4 5 6 7 -8 11 12 13 -15 16 -17 18 19 20 21 22 -23 24 25 0 35 23 4 0
132 -1 2 3 4 5 6 7 8 9 11 12 13 -15 16 -17 18 19 20 21 22 -23 24 25 0 35 4 0
133 -1 2 3 4 5 6 7 8 -9 11 12 13 -14 -15 16 -17 18 19 20 21 22 -23 24 25 0 35 0
134 -1 2 3 4 5 6 7 8 -9 -10 11 12 13 14 -15 16 -17 18 19 20 21 22 -23 24 25 0 25 0
135 -1 2 3 4 5 -6 13 15 16 -17 18 19 20 21 22 -23 24 25 0 19 5 0
136 -1 2 3 4 5 6 -11 13 15 16 -17 18 19 20 21 22 -23 24 25 0 28 5 4 25 0
137 -1 2 3 4 5 6 11 -12 13 15 16 -17 18 19 20 21 22 -23 24 25 0 5 25 4 31 0
138 -1 2 3 4 5 6 -7 11 12 13 15 16 -17 18 19 20 21 22 -23 24 25 0 22 5 0
139 -1 2 3 4 5 6 7 -8 11 12 13 15 16 -17 18 19 20 21 22 -23 24 25 0 24 5 0
140 -1 2 3 4 5 6 7 8 -9 11 12 13 15 16 -17 18 19 20 21 22 -23 24 25 0 25 5 0
141 -1 2 3 4 5 6 7 8 9 11 12 13 14 15 16 -17 18 19 20 21 22 -23 24 25 0 4 0
142 -1 2 3 4 5 6 7 8 9 10 11 12 13 -14 15 16 -17 18 19 20 21 22 -23 24 25 0 5 0
143 -1 2 3 4 5 -6 13 16 -17 18 19 20 23 0 17 3 0
144 -1 2 3 4 5 6 -7 13 16 -17 18 19 20 23 0 20 3 0
145 -1 2 3 4 5 6 7 8 13 16 -17 18 19 20 23 0 3 0
146 -1 2 3 4 5 6 7 -8 -9 13 16 -17 18 19 20 23 0 23 0
147 -1 2 3 4 5 6 7 -8 9 -10 13 16 -17 18 19 20 23 0 24 0
148 558 -11 -15 559 0 29 0
149 558 11 -12 -15 559 0 32 0
150 558 11 12 -15 -21 559 0 48 35 89 0
151 558 11 12 -15 21 -22 559 0 51 35 89 0
152 558 11 12 -14 -15 21 22 559 0 35 0
153 558 11 12 14 -15 21 22 24 559 0 89 0
154 558 11 12 14 -15 21 22 -24 -25 559 0 55 0
155 558 -11 15 559 0 28 89 92 55 0
156 558 11 -12 15 559 0 31 89 92 55 0
157 558 11 12 15 -21 559 0 49 92 0
158 558 11 12 15 21 -22 559 0 52 92 0
159 558 11 12 14 15 21 22 559 0 89 92 55 0
160 558 11 12 -14 15 21 22 -24 559 0 55 92 0
161 558 11 12 -14 15 21 22 24 25 559 0 92 0
162 -1 2 3 4 5 -11 -13 17 0 27 0
163 -1 2 3 4 5 11 -12 -13 17 0 30 0
164 -1 2 3 4 5 11 12 -13 -14 17 0 33 0
165 -1 2 3 4 5 11 12 -13 14 -15 17 0 34 0
166 -1 2 3 4 5 11 12 -13 14 15 17 -21 -22 0 46 0
167 -1 2 3 4 5 11 12 -13 14 15 17 21 -22 -23 0 50 0
168 -1 2 3 4 5 11 12 -13 14 15 17 21 -22 23 -24 0 51 0
169 -1 2 3 4 5 11 12 -13 14 15 17 21 -22 23 24 -25 0 52 0
170 557 -6 -19 556 0 45 19 83 0
171 557 6 -16 -19 556 0 38 0
172 557 6 -7 16 -19 556 0 45 22 83 0
173 557 6 7 -8 16 -19 556 0 45 24 83 0
174 557 6 7 8 16 -18 -19 556 0 43 0
175 557 6 7 8 -9 16 18 -19 556 0 45 25 83 0
176 557 6 7 8 9 10 16 18 -19 556 0 45 83 0
177 557 6 7 8 9 -10 16 18 -19 -20 556 0 45 0
178 557 -6 19 556 0 18 86 0
179 557 6 -16 19 556 0 39 86 83 25 0
180 557 6 -7 16 19 556 0 21 86 0
181 557 6 7 -8 16 19 556 0 23 86 0
182 557 6 7 8 16 -18 19 556 0 44 86 83 25 0
183 557 6 7 8 9 16 18 19 556 0 86 0
184 557 6 7 8 -9 -10 16 18 19 556 0 25 0
185 557 6 7 8 -9 10 16 18 19 20 556 0 83 0
186 -1 2 3 4 5 -6 11 12 -13 14 15 17 22 0 16 2 0
187 -1 2 3 4 5 6 7 11 12 -13 14 15 17 22 0 2 0
188 -1 2 3 4 5 6 -7 -8 11 12 -13 14 15 17 22 0 20 0
189 -1 2 3 4 5 6 -7 8 -9 11 12 -13 14 15 17 22 0 21 0
190 -1 2 3 4 5 6 -7 8 9 -10 11 12 -13 14 15 17 22 0 22 0
191 -1 2 3 4 5 6 -7 8 9 10 11 12 -13 14 15 -16 17 -19 22 0 38 0
192 -1 2 3 4 5 6 -7 8 9 10 11 12 -13 14 15 16 17 -19 -21 22 0 49 45 5 0
193 -1 2 3 4 5 6 -7 8 9 10 11 12 -13 14 15 16 17 -18 -19 21 22 0 43 0
194 -1 2 3 4 5 6 -7 8 9 10 11 12 -13 14 15 16 17 18 -19 21 22 -23 0 54 45 5 0
195 -1 2 3 4 5 6 -7 8 9 10 11 12 -13 14 15 16 17 18 -19 21 22 23 -24 0 55 45 5 0
196 -1 2 3 4 5 6 -7 8 9 10 11 12 -13 14 15 16 17 18 -19 -20 21 22 23 24 0 45 0
197 -1 2 3 4 5 6 -7 8 9 10 11 12 -13 14 15 16 17 18 -19 20 21 22 23 24 25 0 5 0
198 -1 2 3 4 5 6 -7 8 9 10 11 12 -13 14 15 -16 17 19 22 0 39 5 4 55 0
199 -1 2 3 4 5 6 -7 8 9 10 11 12 -13 14 15 16 17 19 -21 22 0 48 4 0
200 -1 2 3 4 5 6 -7 8 9 10 11 12 -13 14 15 16 17 -18 19 21 22 0 44 4 5 55 0
201 -1 2 3 4 5 6 -7 8 9 10 11 12 -13 14 15 16 17 18 19 21 22 -23 0 53 4 0
202 -1 2 3 4 5 6 -7 8 9 10 11 12 -13 14 15 16 17 18 19 21 22 23 24 0 4 0
203 -1 2 3 4 5 6 -7 8 9 10 11 12 -13 14 15 16 17 18 19 20 21 22 23 -24 0 55 5 0
204 -1 2 3 4 5 6 -7 8 9 10 11 12 -13 14 15 16 17 18 19 -20 21 22 23 -24 -25 0 55 0
205 -1 2 3 4 5 -11 -12 13 17 0 26 0
206 -1 2 3 4 5 11 -12 13 -14 17 0 31 0
207 -1 2 3 4 5 11 -12 13 14 -15 17 0 32 0
208 -1 2 3 4 5 11 -12 13 14 15 17 -21 -23 0 47 0
209 -1 2 3 4 5 11 -12 13 14 15 17 21 -22 -23 0 50 0
210 -1 2 3 4 5 11 -12 13 14 15 17 21 22 -23 -24 0 53 0
211 -1 2 3 4 5 11 -12 13 14 15 17 21 22 -23 24 -25 0 54 0
212 -1 2 3 4 5 11 -12 13 14 15 17 -21 23 -25 0 49 0
213 -1 2 3 4 5 11 -12 13 14 15 17 21 -22 23 -25 0 52 0
214 -1 2 3 4 5 11 -12 13 14 15 17 21 22 23 -24 -25 0 55 0
215 -1 2 3 4 5 -6 -9 11 -12 13 14 15 17 21 22 23 24 -25 0 18 0
216 -1 2 3 4 5 6 -9 11 -12 13 14 15 -16 17 21 22 23 24 -25 0 37 23 3 0
217 -1 2 3 4 5 6 -7 -9 11 -12 13 14 15 16 17 21 22 23 24 -25 0 21 0
218 -1 2 3 4 5 6 7 -8 -9 11 -12 13 14 15 16 17 21 22 23 24 -25 0 23 0
219 -1 2 3 4 5 6 7 8 -9 11 -12 13 14 15 16 17 18 21 22 23 24 -25 0 3 0
220 -1 2 3 4 5 6 7 8 -9 11 -12 13 14 15 16 17 -18 -19 21 22 23 24 -25 0 43 0
221 -1 2 3 4 5 6 7 8 -9 -10 11 -12 13 14 15 16 17 -18 19 21 22 23 24 -25 0 25 0
222 -1 2 3 4 5 6 7 8 -9 10 11 -12 13 14 15 16 17 -18 19 -20 21 22 23 24 -25 0 44 0
223 -1 2 3 4 5 -6 9 11 -12 13 14 15 17 21 22 23 24 -25 0 17 3 4 43 0
224 -1 2 3 4 5 6 9 11 -12 13 14 15 -16 17 21 22 23 24 -25 0 38 4 0
225 -1 2 3 4 5 6 -7 9 11 -12 13 14 15 16 17 21 22 23 24 -25 0 20 4 3 43 0
226 -1 2 3 4 5 6 7 8 9 11 -12 13 14 15 16 17 21 22 23 24 -25 0 3 4 43 0
227 -1 2 3 4 5 6 7 -8 9 11 -12 13 14 15 16 17 -18 21 22 23 24 -25 0 43 4 0
228 -1 2 3 4 5 6 7 -8 9 11 -12 13 14 15 16 17 18 19 21 22 23 24 -25 0 4 0
229 -1 2 3 4 5 6 7 -8 9 -10 11 -12 13 14 15 16 17 18 -19 21 22 23 24 -25 0 24 0
230 -1 2 3 4 5 6 7 -8 9 10 11 -12 13 14 15 16 17 18 -19 -20 21 22 23 24 -25 0 45 0
231 -9 3 13 23 556 0 23 25 83 3 44 0
232 -19 3 5 13 15 23 25 0 43 45 3 5 24 0
233 -9 3 5 13 15 23 25 0 23 25 3 5 44 0
234 -1 2 3 4 5 11 -12 13 14 15 17 -21 23 25 0 -1 0
235 -1 2 3 4 5 -7 11 -12 13 14 15 17 21 23 25 0 20 22 3 5 44 0
236 7 -1 2 3 4 5 11 -12 13 14 15 17 21 -22 23 25 0 70 64 51 -16 17 18 3 4 43 -20 23 24 4 5 45 -21 23 25 3 5 44 -22 24 25 3 4 43 -63 -69 0
237 -1 2 3 4 5 7 -9 11 -12 13 14 15 17 21 22 23 25 0 23 25 3 5 44 0
238 -1 2 3 4 5 7 9 11 -12 13 14 15 17 -19 21 22 23 25 0 43 45 3 5 24 0
239 -1 2 3 4 5 7 9 11 -12 13 14 15 17 19 21 22 23 24 25 0 4 0
240 555 -6 -10 556 0 19 0
241 555 6 -10 -16 556 0 37 24 80 0
242 555 6 -8 -10 16 556 0 24 0
243 555 6 8 -10 16 18 556 0 80 0
244 555 6 8 -10 16 -18 -20 556 0 44 0
245 555 -6 10 556 0 17 80 83 44 0
246 555 6 10 -16 556 0 39 83 0
247 555 6 8 10 16 556 0 80 83 44 0
248 555 6 -8 10 16 -18 556 0 44 83 0
249 555 6 -8 10 16 18 20 556 0 83 0
250 -1 2 3 4 5 12 13 17 -21 -22 0 46 0
251 -1 2 3 4 5 12 13 17 21 -22 -23 0 50 0
252 -1 2 3 4 5 12 13 17 21 -22 23 -24 0 51 0
253 -1 2 3 4 5 12 13 17 21 -22 23 24 -25 0 52 0
254 -1 2 3 4 5 -6 12 13 17 -19 21 -22 23 24 25 0 43 17 3 0
255 -1 2 3 4 5 6 -11 12 13 17 -19 21 -22 23 24 25 0 43 45 29 3 5 24 0
256 -1 2 3 4 5 6 11 12 13 -16 17 -19 21 -22 23 24 25 0 38 0
257 -1 2 3 4 5 6 -7 11 12 13 16 17 -19 21 -22 23 24 25 0 43 20 3 0
258 -1 2 3 4 5 6 7 8 11 12 13 16 17 -19 21 -22 23 24 25 0 43 3 0
259 -1 2 3 4 5 6 7 -8 11 12 13 16 17 -18 -19 21 -22 23 24 25 0 43 0
260 -1 2 3 4 5 6 7 -8 -9 11 12 13 16 17 18 -19 21 -22 23 24 25 0 23 0
261 -1 2 3 4 5 6 7 -8 9 11 12 13 -14 16 17 18 -19 21 -22 23 24 25 0 45 35 24 5 0
262 -1 2 3 4 5 6 7 -8 9 -10 11 12 13 14 16 17 18 -19 21 -22 23 24 25 0 24 0
263 -1 2 3 4 5 6 7 -8 9 10 11 12 13 14 15 16 17 18 -19 21 -22 23 24 25 0 45 5 0
264 -1 2 3 4 5 6 7 -8 9 10 11 12 13 14 -15 16 17 18 -19 -20 21 -22 23 24 25 0 45 0
265 -1 2 3 4 5 -6 12 13 -15 17 19 21 -22 23 24 25 0 35 18 4 0
266 -1 2 3 4 5 6 -11 12 13 -15 17 19 21 -22 23 24 25 0 29 0
267 -1 2 3 4 5 6 11 12 13 -15 -16 17 19 21 -22 23 24 25 0 37 35 3 4 23 0
268 -1 2 3 4 5 6 -7 11 12 13 -15 16 17 19 21 -22 23 24 25 0 35 21 4 0
269 -1 2 3 4 5 6 7 -8 11 12 13 -15 16 17 19 21 -22 23 24 25 0 35 23 4 0
270 -1 2 3 4 5 6 7 8 11 12 13 -15 16 17 18 19 21 -22 23 24 25 0 3 0
271 -1 2 3 4 5 6 7 8 9 11 12 13 -15 16 17 -18 19 21 -22 23 24 25 0 35 4 0
272 -1 2 3 4 5 6 7 8 -9 11 12 13 -14 -15 16 17 -18 19 21 -22 23 24 25 0 35 0
273 -1 2 3 4 5 6 7 8 -9 -10 11 12 13 14 -15 16 17 -18 19 21 -22 23 24 25 0 25 0
274 -1 2 3 4 5 6 7 8 -9 10 11 12 13 14 -15 16 17 -18 19 -20 21 -22 23 24 25 0 44 0
275 -1 2 3 4 5 -11 12 13 15 17 19 21 -22 23 24 25 0 28 4 23 25 3 5 44 0
276 -1 2 3 4 5 -7 11 12 13 15 17 19 21 -22 23 24 25 0 20 22 3 5 44 0
277 -1 2 3 4 5 7 -9 11 12 13 15 17 19 21 -22 23 24 25 0 23 25 3 5 44 0
278 -1 2 3 4 5 7 9 11 12 13 14 15 17 19 21 -22 23 24 25 0 4 0
279 -1 2 3 4 5 -6 12 13 17 22 0 16 2 0
280 -1 2 3 4 5 6 7 12 13 17 22 0 2 0
281 -1 2 3 4 5 6 -7 -8 12 13 17 22 0 20 0
282 -1 2 3 4 5 6 -7 8 -9 12 13 17 22 0 21 0
283 -1 2 3 4 5 6 -7 8 9 -10 12 13 17 22 0 22 0
284 -1 2 3 4 5 6 -7 8 9 10 -11 12 13 17 -19 22 0 43 45 29 3 5 54 0
285 -1 2 3 4 5 6 -7 8 9 10 11 12 13 -16 17 -19 22 0 38 0
286 -1 2 3 4 5 6 -7 8 9 10 11 12 13 16 17 -19 -21 22 0 47 43 3 0
287 -1 2 3 4 5 6 -7 8 9 10 11 12 13 16 17 -18 -19 21 22 0 43 0
288 -1 2 3 4 5 6 -7 8 9 10 11 12 13 16 17 18 -19 21 22 23 0 3 0
289 -1 2 3 4 5 6 -7 8 9 10 11 12 13 -14 16 17 18 -19 21 22 -23 0 54 45 35 5 0
290 -1 2 3 4 5 6 -7 8 9 10 11 12 13 14 16 17 18 -19 21 22 -23 -24 0 53 0
291 -1 2 3 4 5 6 -7 8 9 10 11 12 13 14 15 16 17 18 -19 21 22 -23 24 0 54 45 5 0
292 -1 2 3 4 5 6 -7 8 9 10 11 12 13 14 -15 16 17 18 -19 -20 21 22 -23 24 0 45 0
293 -1 2 3 4 5 6 -7 8 9 10 11 12 13 14 -15 16 17 18 -19 20 21 22 -23 24 -25 0 54 0
294 -1 2 3 4 5 6 -7 8 9 10 -11 12 13 17 19 22 -23 0 53 28 4 0
295 -1 2 3 4 5 6 -7 8 9 10 11 12 13 -16 17 19 22 -23 0 53 54 39 4 5 35 0
296 -1 2 3 4 5 6 -7 8 9 10 11 12 13 16 17 19 -21 22 -23 0 47 0
297 -1 2 3 4 5 6 -7 8 9 10 11 12 13 16 17 -18 19 21 22 -23 0 53 54 44 4 5 35 0
298 -1 2 3 4 5 6 -7 8 9 10 11 12 13 14 16 17 18 19 21 22 -23 0 53 4 0
299 -1 2 3 4 5 6 -7 8 9 10 11 12 13 -14 16 17 18 19 21 22 -23 -24 0 53 0
300 -1 2 3 4 5 6 -7 8 9 10 11 12 13 -14 -15 16 17 18 19 21 22 -23 24 0 35 0
301 -1 2 3 4 5 6 -7 8 9 10 11 12 13 -14 15 16 17 18 19 20 21 22 -23 24 0 54 5 0
302 -1 2 3 4 5 6 -7 8 9 10 11 12 13 -14 15 16 17 18 19 -20 21 22 -23 24 -25 0 54 0
303 -1 2 3 4 5 6 -7 8 9 10 12 13 -16 17 19 22 23 0 37 3 0
304 -1 2 3 4 5 6 -7 8 9 10 12 13 16 17 18 19 22 23 0 3 0
305 -1 2 3 4 5 6 -7 8 9 10 12 13 16 17 -18 19 -20 22 23 0 44 0
306 -1 2 3 4 5 6 -7 8 9 10 -11 12 13 -15 16 17 -18 19 20 22 23 0 29 0
307 -1 2 3 4 5 6 -7 8 9 10 11 12 13 -15 16 17 -18 19 20 -21 22 23 0 48 35 4 0
308 -1 2 3 4 5 6 -7 8 9 10 11 12 13 -14 -15 16 17 -18 19 20 21 22 23 0 35 0
309 -1 2 3 4 5 6 -7 8 9 10 11 12 13 14 -15 16 17 -18 19 20 21 22 23 24 0 4 0
310 -1 2 3 4 5 6 -7 8 9 10 11 12 13 14 -15 16 17 -18 19 20 21 22 23 -24 -25 0 55 0
311 -1 2 3 4 5 6 -7 8 9 10 -11 12 13 15 16 17 -18 19 20 22 23 0 28 5 4 55 0
312 -1 2 3 4 5 6 -7 8 9 10 11 12 13 15 16 17 -18 19 20 -21 22 23 0 49 5 0
313 -1 2 3 4 5 6 -7 8 9 10 11 12 13 14 15 16 17 -18 19 20 21 22 23 0 4 5 55 0
314 -1 2 3 4 5 6 -7 8 9 10 11 12 13 -14 15 16 17 -18 19 20 21 22 23 -24 0 55 5 0
315 -1 2 3 4 5 6 -7 8 9 10 11 12 13 -14 15 16 17 -18 19 20 21 22 23 24 25 0 5 0
316 1 -6 -7 0 16 0
317 1 -6 7 -8 0 17 0
318 1 -6 7 8 -9 0 18 0
319 1 -6 7 8 9 -10 0 19 0
320 1 -6 7 8 9 10 -21 -23 0 47 0
321 1 -6 7 8 9 10 21 -22 -23 0 50 0
322 1 -6 7 8 9 10 21 22 -23 -24 0 53 0
323 1 -6 7 8 9 10 21 22 -23 24 -25 0 54 0
324 1 -2 -5 -6 7 8 9 10 21 22 -23 24 25 0 12 0
325 1 2 -3 -5 -6 7 8 9 10 21 22 -23 24 25 0 14 0
326 1 2 3 -5 -6 7 8 9 10 -13 21 22 -23 24 25 0 30 33 15 2 4 41 0
327 1 2 3 -4 -5 -6 7 8 9 10 13 21 22 -23 24 25 0 15 0
328 1 2 3 4 -5 -6 7 8 9 10 13 -15 21 22 -23 24 25 0 32 35 2 4 41 0
329 1 2 3 4 -5 -6 7 8 9 10 -11 13 15 -17 21 22 -23 24 25 0 41 28 4 0
330 1 2 3 4 -5 -6 7 8 9 10 11 -12 13 15 -17 21 22 -23 24 25 0 41 31 4 0
331 1 2 3 4 -5 -6 7 8 9 10 11 12 13 15 -16 -17 21 22 -23 24 25 0 36 0
332 1 2 3 4 -5 -6 7 8 9 10 11 12 13 15 16 -17 -18 21 22 -23 24 25 0 40 0
333 1 2 3 4 -5 -6 7 8 9 10 11 12 13 14 15 16 -17 18 21 22 -23 24 25 0 41 4 0
334 1 2 3 4 -5 -6 7 8 9 10 11 12 13 -14 15 16 -17 18 -19 21 22 -23 24 25 0 41 0
335 1 2 3 4 -5 -6 7 8 9 10 11 12 13 -14 15 16 -17 18 19 -20 21 22 -23 24 25 0 42 0
336 1 2 3 4 -5 -6 7 8 9 10 -11 13 15 17 21 22 -23 24 25 0 26 2 0
337 1 2 3 4 -5 -6 7 8 9 10 11 13 15 -16 17 21 22 -23 24 25 0 38 2 4 31 0
338 1 2 3 4 -5 -6 7 8 9 10 11 12 13 15 16 17 21 22 -23 24 25 0 2 0
339 1 2 3 4 -5 -6 7 8 9 10 11 -12 13 15 16 17 -18 21 22 -23 24 25 0 43 31 4 0
340 1 2 3 4 -5 -6 7 8 9 10 11 -12 13 -14 15 16 17 18 21 22 -23 24 25 0 31 0
341 1 2 3 4 -5 -6 7 8 9 10 11 -12 13 14 15 16 17 18 19 21 22 -23 24 25 0 4 0
342 1 2 3 4 -5 -6 7 8 9 10 11 -12 13 14 15 16 17 18 -19 -20 21 22 -23 24 25 0 45 0
343 1 5 -6 7 8 9 10 -11 -15 21 22 -23 24 25 0 29 0
344 1 5 -6 7 8 9 10 11 -12 -15 21 22 -23 24 25 0 32 0
345 1 5 -6 7 8 9 10 11 12 -13 -15 21 22 -23 24 25 0 34 0
346 1 5 -6 7 8 9 10 11 12 13 -14 -15 21 22 -23 24 25 0 35 0
347 1 5 -6 7 8 9 10 11 12 13 14 -15 -16 -17 21 22 -23 24 25 0 36 0
348 1 -2 5 -6 7 8 9 10 11 12 13 14 -15 16 -17 21 22 -23 24 25 0 41 11 4 0
349 1 2 -3 5 -6 7 8 9 10 11 12 13 14 -15 16 -17 21 22 -23 24 25 0 41 4 13 0
350 1 2 3 5 -6 7 8 9 10 11 12 13 14 -15 16 -17 -18 21 22 -23 24 25 0 40 0
351 1 2 3 4 5 -6 7 8 9 10 11 12 13 14 -15 16 -17 18 21 22 -23 24 25 0 41 4 0
352 1 2 3 -4 5 -6 7 8 9 10 11 12 13 14 -15 16 -17 18 -19 21 22 -23 24 25 0 41 0
353 1 2 3 -4 5 -6 7 8 9 10 11 12 13 14 -15 16 -17 18 19 -20 21 22 -23 24 25 0 42 0
354 1 5 -6 7 8 9 10 11 12 13 14 -15 -16 17 21 22 -23 24 25 0 38 2 4 11 0
355 1 2 5 -6 7 8 9 10 11 12 13 14 -15 16 17 21 22 -23 24 25 0 2 0
356 1 -2 -3 5 -6 7 8 9 10 11 12 13 14 -15 16 17 21 22 -23 24 25 0 10 0
357 1 -2 3 5 -6 7 8 9 10 11 12 13 14 -15 16 17 -18 21 22 -23 24 25 0 43 11 4 0
358 1 -2 3 -4 5 -6 7 8 9 10 11 12 13 14 -15 16 17 18 21 22 -23 24 25 0 11 0
359 1 -2 3 4 5 -6 7 8 9 10 11 12 13 14 -15 16 17 18 19 21 22 -23 24 25 0 4 0
360 1 -2 3 4 5 -6 7 8 9 10 11 12 13 14 -15 16 17 18 -19 -20 21 22 -23 24 25 0 45 0
361 1 5 -6 7 8 9 10 15 -16 21 22 -23 24 25 0 39 5 0
362 1 5 -6 7 8 9 10 15 16 -17 21 22 -23 24 25 0 42 5 0
363 1 -3 5 -6 7 8 9 10 15 16 17 21 22 -23 24 25 0 10 13 5 2 45 31 4 0
364 1 3 5 -6 7 8 9 10 -13 15 16 17 21 22 -23 24 25 0 30 33 5 2 45 11 4 0
365 1 3 5 -6 7 8 9 10 13 15 16 17 -18 21 22 -23 24 25 0 44 5 0
366 1 3 5 -6 7 8 9 10 13 15 16 17 18 -19 21 22 -23 24 25 0 45 5 0
367 1 3 5 -6 7 8 9 10 13 15 16 17 18 19 20 21 22 -23 24 25 0 5 0
368 553 -11 -12 554 0 26 0
369 553 -2 11 -12 554 0 31 11 77 0
370 553 2 4 11 -12 554 0 31 77 0
371 553 2 -4 11 -12 -14 554 0 31 0
372 553 -11 12 554 0 28 74 77 11 0
373 553 2 11 12 554 0 74 0
374 553 -2 -4 11 12 554 0 11 0
375 553 -2 4 11 12 14 554 0 77 0
376 1 -6 7 8 9 10 -16 -17 23 0 36 0
377 1 -6 7 8 9 10 16 -17 -18 23 0 40 0
378 1 -6 7 8 9 10 16 -17 18 -19 23 0 41 0
379 1 -6 7 8 9 10 16 -17 18 19 -20 23 0 42 0
380 1 -6 7 8 9 10 -11 -13 16 -17 18 19 20 23 0 27 0
381 1 -6 7 8 9 10 11 -12 -13 16 -17 18 19 20 23 0 30 0
382 1 -6 7 8 9 10 11 12 -13 -14 16 -17 18 19 20 23 0 33 0
383 1 -6 7 8 9 10 11 12 -13 14 -15 16 -17 18 19 20 23 0 34 0
384 1 -5 -6 7 8 9 10 11 12 -13 14 15 16 -17 18 19 20 -21 23 0 48 15 4 0
385 1 -2 -5 -6 7 8 9 10 11 12 -13 14 15 16 -17 18 19 20 21 23 0 12 0
386 1 2 -5 -6 7 8 9 10 11 12 -13 14 15 16 -17 18 19 20 21 -22 23 0 51 15 4 0
387 1 2 -3 -5 -6 7 8 9 10 11 12 -13 14 15 16 -17 18 19 20 21 22 23 0 14 0
388 1 2 3 -4 -5 -6 7 8 9 10 11 12 -13 14 15 16 -17 18 19 20 21 22 23 0 15 0
389 1 2 3 4 -5 -6 7 8 9 10 11 12 -13 14 15 16 -17 18 19 20 21 22 23 24 0 4 0
390 1 2 3 4 -5 -6 7 8 9 10 11 12 -13 14 15 16 -17 18 19 20 21 22 23 -24 -25 0 55 0
391 1 5 -6 7 8 9 10 11 12 -13 14 15 16 -17 18 19 20 -21 23 0 49 5 0
392 1 -2 5 -6 7 8 9 10 11 12 -13 14 15 16 -17 18 19 20 21 23 0 11 5 4 55 0
393 1 2 5 -6 7 8 9 10 11 12 -13 14 15 16 -17 18 19 20 21 -22 23 0 52 5 0
394 1 2 -3 5 -6 7 8 9 10 11 12 -13 14 15 16 -17 18 19 20 21 22 23 0 13 5 4 55 0
395 1 2 3 4 5 -6 7 8 9 10 11 12 -13 14 15 16 -17 18 19 20 21 22 23 0 4 5 55 0
396 1 2 3 -4 5 -6 7 8 9 10 11 12 -13 14 15 16 -17 18 19 20 21 22 23 -24 0 55 5 0
397 1 2 3 -4 5 -6 7 8 9 10 11 12 -13 14 15 16 -17 18 19 20 21 22 23 24 25 0 5 0
398 1 -2 -6 7 8 9 10 13 16 -17 18 19 20 23 0 10 3 0
399 1 2 3 -6 7 8 9 10 13 16 -17 18 19 20 23 0 3 0
400 1 2 -3 -4 -6 7 8 9 10 13 16 -17 18 19 20 23 0 13 0
401 1 2 -3 4 -5 -6 7 8 9 10 13 16 -17 18 19 20 23 0 14 0
402 1 -6 7 8 9 10 -11 -13 17 23 0 27 0
403 1 -6 7 8 9 10 11 -12 -13 17 23 0 30 0
404 1 -6 7 8 9 10 11 12 -13 -14 17 23 0 33 0
405 1 -6 7 8 9 10 11 12 -13 14 -15 17 23 0 34 0
406 1 -5 -6 7 8 9 10 11 12 -13 14 15 -16 17 23 0 38 12 15 2 4 51 0
407 1 -5 -6 7 8 9 10 11 12 -13 14 15 16 17 -21 23 0 46 12 2 0
408 1 -2 -5 -6 7 8 9 10 11 12 -13 14 15 16 17 21 23 0 12 0
409 1 2 -5 -6 7 8 9 10 11 12 -13 14 15 16 17 21 22 23 0 2 0
410 1 2 -3 -5 -6 7 8 9 10 11 12 -13 14 15 16 17 21 -22 23 0 14 0
411 1 2 3 -5 -6 7 8 9 10 11 12 -13 14 15 16 17 -18 21 -22 23 0 51 43 15 4 0
412 1 2 3 -4 -5 -6 7 8 9 10 11 12 -13 14 15 16 17 18 21 -22 23 0 15 0
413 1 2 3 4 -5 -6 7 8 9 10 11 12 -13 14 15 16 17 18 19 21 -22 23 0 51 4 0
414 1 2 3 4 -5 -6 7 8 9 10 11 12 -13 14 15 16 17 18 -19 21 -22 23 -24 0 51 0
415 1 2 3 4 -5 -6 7 8 9 10 11 12 -13 14 15 16 17 18 -19 -20 21 -22 23 24 0 45 0
416 1 2 3 4 -5 -6 7 8 9 10 11 12 -13 14 15 16 17 18 -19 20 21 -22 23 24 -25 0 52 0
417 1 -2 -3 5 -6 7 8 9 10 11 12 -13 14 15 17 23 0 10 0
418 1 -2 3 -4 5 -6 7 8 9 10 11 12 -13 14 15 17 23 0 11 0
419 1 -2 3 4 5 -6 7 8 9 10 11 12 -13 14 15 -16 17 -19 23 0 38 0
420 1 -2 3 4 5 -6 7 8 9 10 11 12 -13 14 15 16 17 -19 -21 23 0 49 45 5 0
421 1 -2 3 4 5 -6 7 8 9 10 11 12 -13 14 15 16 17 -19 21 -22 23 0 52 45 5 0
422 1 -2 3 4 5 -6 7 8 9 10 11 12 -13 14 15 16 17 -18 -19 21 22 23 0 43 0
423 1 -2 3 4 5 -6 7 8 9 10 11 12 -13 14 15 16 17 18 -19 21 22 23 -24 0 55 45 5 0
424 1 -2 3 4 5 -6 7 8 9 10 11 12 -13 14 15 16 17 18 -19 -20 21 22 23 24 0 45 0
425 1 -2 3 4 5 -6 7 8 9 10 11 12 -13 14 15 16 17 18 -19 20 21 22 23 24 25 0 5 0
426 1 -2 3 4 5 -6 7 8 9 10 11 12 -13 14 15 -16 17 19 23 0 39 5 4 55 0
427 1 -2 3 4 5 -6 7 8 9 10 11 12 -13 14 15 16 17 19 -21 23 0 48 4 0
428 1 -2 3 4 5 -6 7 8 9 10 11 12 -13 14 15 16 17 19 21 -22 23 0 51 4 0
429 1 -2 3 4 5 -6 7 8 9 10 11 12 -13 14 15 16 17 -18 19 21 22 23 0 44 4 5 55 0
430 1 -2 3 4 5 -6 7 8 9 10 11 12 -13 14 15 16 17 18 19 21 22 23 24 0 4 0
431 1 -2 3 4 5 -6 7 8 9 10 11 12 -13 14 15 16 17 18 19 20 21 22 23 -24 0 55 5 0
432 1 -2 3 4 5 -6 7 8 9 10 11 12 -13 14 15 16 17 18 19 -20 21 22 23 -24 -25 0 55 0
433 1 2 5 -6 7 8 9 10 11 12 -13 14 15 -16 17 23 0 39 2 5 52 0
434 1 2 5 -6 7 8 9 10 11 12 -13 14 15 16 17 -21 23 0 46 2 0
435 1 2 5 -6 7 8 9 10 11 12 -13 14 15 16 17 21 22 23 0 2 0
436 1 2 -3 5 -6 7 8 9 10 11 12 -13 14 15 16 17 21 -22 23 0 51 52 13 5 4 45 0
437 1 2 3 5 -6 7 8 9 10 11 12 -13 14 15 16 17 -18 21 -22 23 0 52 44 5 0
438 1 2 3 4 5 -6 7 8 9 10 11 12 -13 14 15 16 17 18 21 -22 23 0 51 52 4 5 45 0
439 1 2 3 -4 5 -6 7 8 9 10 11 12 -13 14 15 16 17 18 -19 21 -22 23 0 52 45 5 0
440 1 2 3 -4 5 -6 7 8 9 10 11 12 -13 14 15 16 17 18 19 21 -22 23 -24 0 51 0
441 1 2 3 -4 5 -6 7 8 9 10 11 12 -13 14 15 16 17 18 19 20 21 -22 23 24 0 52 5 0
442 1 2 3 -4 5 -6 7 8 9 10 11 12 -13 14 15 16 17 18 19 -20 21 -22 23 24 -25 0 52 0
443 1 -2 -3 -6 7 8 9 10 13 17 23 0 10 0
444 1 2 -3 -4 -6 7 8 9 10 13 17 23 0 13 0
445 1 2 -3 4 -5 -6 7 8 9 10 13 17 23 0 14 0
446 1 2 -3 4 5 -6 7 8 9 10 13 -16 17 -19 23 0 38 0
447 1 2 -3 4 5 -6 7 8 9 10 13 16 17 -18 -19 23 0 43 0
448 1 2 -3 4 5 -6 7 8 9 10 13 16 17 18 -19 -20 23 0 45 0
449 1 2 -3 4 5 -6 7 8 9 10 -11 13 16 17 18 -19 20 -22 23 0 52 29 5 0
450 1 2 -3 4 5 -6 7 8 9 10 11 -12 13 16 17 18 -19 20 -22 23 0 52 32 5 0
451 1 2 -3 4 5 -6 7 8 9 10 11 12 13 16 17 18 -19 20 -21 -22 23 0 46 0
452 1 2 -3 4 5 -6 7 8 9 10 11 12 13 -14 16 17 18 -19 20 21 -22 23 0 52 35 5 0
453 1 2 -3 4 5 -6 7 8 9 10 11 12 13 14 16 17 18 -19 20 21 -22 23 -24 0 51 0
454 1 2 -3 4 5 -6 7 8 9 10 11 12 13 14 15 16 17 18 -19 20 21 -22 23 24 0 52 5 0
455 1 2 -3 4 5 -6 7 8 9 10 11 12 13 14 -15 16 17 18 -19 20 21 -22 23 24 -25 0 52 0
456 1 2 -3 4 5 -6 7 8 9 10 -11 13 16 17 18 -19 20 22 23 0 26 2 0
457 1 2 -3 4 5 -6 7 8 9 10 11 13 16 17 18 -19 20 -21 22 23 0 49 2 5 32 0
458 1 2 -3 4 5 -6 7 8 9 10 11 12 13 16 17 18 -19 20 21 22 23 0 2 0
459 1 2 -3 4 5 -6 7 8 9 10 11 -12 13 -14 16 17 18 -19 20 21 22 23 0 31 0
460 1 2 -3 4 5 -6 7 8 9 10 11 -12 13 14 16 17 18 -19 20 21 22 23 -24 0 55 32 5 0
461 1 2 -3 4 5 -6 7 8 9 10 11 -12 13 14 -15 16 17 18 -19 20 21 22 23 24 0 32 0
462 1 2 -3 4 5 -6 7 8 9 10 11 -12 13 14 15 16 17 18 -19 20 21 22 23 24 25 0 5 0
463 1 2 -3 4 5 -6 7 8 9 10 -11 -12 13 17 19 23 0 26 0
464 1 2 -3 4 5 -6 7 8 9 10 11 -12 13 -16 17 19 23 0 39 31 32 4 5 55 0
465 1 2 -3 4 5 -6 7 8 9 10 11 -12 13 16 17 19 -21 23 0 48 31 4 0
466 1 2 -3 4 5 -6 7 8 9 10 11 -12 13 16 17 19 21 -22 23 0 51 31 4 0
467 1 2 -3 4 5 -6 7 8 9 10 11 -12 13 16 17 -18 19 21 22 23 0 44 31 32 4 5 55 0
468 1 2 -3 4 5 -6 7 8 9 10 11 -12 13 -14 16 17 18 19 21 22 23 0 31 0
469 1 2 -3 4 5 -6 7 8 9 10 11 -12 13 14 16 17 18 19 21 22 23 24 0 4 0
470 1 2 -3 4 5 -6 7 8 9 10 11 -12 13 14 -15 16 17 18 19 21 22 23 -24 0 32 0
471 1 2 -3 4 5 -6 7 8 9 10 11 -12 13 14 15 16 17 18 19 20 21 22 23 -24 0 55 5 0
472 1 2 -3 4 5 -6 7 8 9 10 11 -12 13 14 15 16 17 18 19 -20 21 22 23 -24 -25 0 55 0
473 1 2 -3 4 5 -6 7 8 9 10 -11 12 13 17 19 23 0 28 2 4 51 0
474 1 2 -3 4 5 -6 7 8 9 10 11 12 13 -16 17 19 23 0 39 2 51 52 4 5 35 0
475 1 2 -3 4 5 -6 7 8 9 10 11 12 13 16 17 19 -21 23 0 46 2 0
476 1 2 -3 4 5 -6 7 8 9 10 11 12 13 16 17 19 21 22 23 0 2 0
477 1 2 -3 4 5 -6 7 8 9 10 11 12 13 16 17 -18 19 21 -22 23 0 51 52 44 4 5 35 0
478 1 2 -3 4 5 -6 7 8 9 10 11 12 13 14 16 17 18 19 21 -22 23 0 51 4 0
479 1 2 -3 4 5 -6 7 8 9 10 11 12 13 -14 16 17 18 19 21 -22 23 -24 0 51 0
480 1 2 -3 4 5 -6 7 8 9 10 11 12 13 -14 -15 16 17 18 19 21 -22 23 24 0 35 0
481 1 2 -3 4 5 -6 7 8 9 10 11 12 13 -14 15 16 17 18 19 20 21 -22 23 24 0 52 5 0
482 1 2 -3 4 5 -6 7 8 9 10 11 12 13 -14 15 16 17 18 19 -20 21 -22 23 24 -25 0 52 0
483 1 3 -6 7 8 9 10 13 -16 17 23 0 37 3 0
484 1 3 -6 7 8 9 10 13 16 17 18 23 0 3 0
485 1 3 -6 7 8 9 10 13 16 17 -18 -19 23 0 43 0
486 1 3 -6 7 8 9 10 13 16 17 -18 19 -20 23 0 44 0
487 1 3 -6 7 8 9 10 -11 13 -15 16 17 -18 19 20 23 0 29 0
488 1 3 -6 7 8 9 10 11 -12 13 -15 16 17 -18 19 20 23 0 32 0
489 1 3 -6 7 8 9 10 11 12 13 -14 -15 16 17 -18 19 20 23 0 35 0
490 1 3 -5 -6 7 8 9 10 11 12 13 14 -15 16 17 -18 19 20 23 0 12 15 2 4 51 0
491 1 3 5 -6 7 8 9 10 11 12 13 14 -15 16 17 -18 19 20 -21 -22 23 0 46 0
492 1 -2 3 5 -6 7 8 9 10 11 12 13 14 -15 16 17 -18 19 20 21 -22 23 0 51 11 4 0
493 1 2 3 4 5 -6 7 8 9 10 11 12 13 14 -15 16 17 -18 19 20 21 -22 23 0 51 4 0
494 1 2 3 -4 5 -6 7 8 9 10 11 12 13 14 -15 16 17 -18 19 20 21 -22 23 -24 0 51 0
495 1 2 3 -4 5 -6 7 8 9 10 11 12 13 14 -15 16 17 -18 19 20 21 -22 23 24 -25 0 52 0
496 1 3 5 -6 7 8 9 10 11 12 13 14 -15 16 17 -18 19 20 -21 22 23 0 48 2 4 11 0
497 1 2 3 5 -6 7 8 9 10 11 12 13 14 -15 16 17 -18 19 20 21 22 23 0 2 0
498 1 -2 3 -4 5 -6 7 8 9 10 11 12 13 14 -15 16 17 -18 19 20 21 22 23 0 11 0
499 1 -2 3 4 5 -6 7 8 9 10 11 12 13 14 -15 16 17 -18 19 20 21 22 23 24 0 4 0
500 1 -2 3 4 5 -6 7 8 9 10 11 12 13 14 -15 16 17 -18 19 20 21 22 23 -24 -25 0 55 0
501 1 -2 3 -5 -6 7 8 9 10 13 15 16 17 -18 19 20 23 0 12 0
502 1 2 3 -4 -5 -6 7 8 9 10 13 15 16 17 -18 19 20 23 0 15 0
503 1 2 3 4 -5 -6 7 8 9 10 -11 13 15 16 17 -18 19 20 -22 23 0 51 28 4 0
504 1 2 3 4 -5 -6 7 8 9 10 11 -12 13 15 16 17 -18 19 20 -22 23 0 51 31 4 0
505 1 2 3 4 -5 -6 7 8 9 10 11 12 13 15 16 17 -18 19 20 -21 -22 23 0 46 0
506 1 2 3 4 -5 -6 7 8 9 10 11 12 13 14 15 16 17 -18 19 20 21 -22 23 0 51 4 0
507 1 2 3 4 -5 -6 7 8 9 10 11 12 13 -14 15 16 17 -18 19 20 21 -22 23 -24 0 51 0
508 1 2 3 4 -5 -6 7 8 9 10 11 12 13 -14 15 16 17 -18 19 20 21 -22 23 24 -25 0 52 0
509 1 2 3 4 -5 -6 7 8 9 10 -11 13 15 16 17 -18 19 20 22 23 0 26 2 0
510 1 2 3 4 -5 -6 7 8 9 10 11 13 15 16 17 -18 19 20 -21 22 23 0 48 2 4 31 0
511 1 2 3 4 -5 -6 7 8 9 10 11 12 13 15 16 17 -18 19 20 21 22 23 0 2 0
512 1 2 3 4 -5 -6 7 8 9 10 11 -12 13 -14 15 16 17 -18 19 20 21 22 23 0 31 0
513 1 2 3 4 -5 -6 7 8 9 10 11 -12 13 14 15 16 17 -18 19 20 21 22 23 24 0 4 0
514 1 2 3 4 -5 -6 7 8 9 10 11 -12 13 14 15 16 17 -18 19 20 21 22 23 -24 -25 0 55 0
515 1 3 5 -6 7 8 9 10 13 15 16 17 -18 19 20 -21 23 0 49 5 0
516 1 3 5 -6 7 8 9 10 13 15 16 17 -18 19 20 21 -22 23 0 52 5 0
517 1 3 5 -6 7 8 9 10 13 15 16 17 -18 19 20 21 22 23 -24 0 55 5 0
518 1 3 5 -6 7 8 9 10 13 15 16 17 -18 19 20 21 22 23 24 25 0 5 0
519 1 6 -11 -12 0 26 0
520 1 6 -11 12 -13 0 27 0
521 1 6 -11 12 13 -14 0 28 0
522 1 6 -11 12 13 14 -15 0 29 0
523 1 6 -11 12 13 14 15 -16 -19 0 38 0
524 1 6 -11 12 13 14 15 16 -17 -19 0 41 0
525 1 6 -11 12 13 14 15 16 17 -18 -19 0 43 0
526 1 6 -11 12 13 14 15 16 17 18 -19 -20 0 45 0
527 1 6 -11 12 13 14 15 16 17 18 -19 20 -21 -23 0 47 0
528 1 6 -11 12 13 14 15 16 17 18 -19 20 21 -22 -23 0 50 0
529 1 6 -11 12 13 14 15 16 17 18 -19 20 21 22 -23 -24 0 53 0
530 1 6 -11 12 13 14 15 16 17 18 -19 20 21 22 -23 24 -25 0 54 0
531 1 -2 -5 6 -11 12 13 14 15 16 17 18 -19 20 21 22 -23 24 25 0 12 0
532 1 2 -5 6 7 -11 12 13 14 15 16 17 18 -19 20 21 22 -23 24 25 0 2 0
533 1 2 -3 -5 6 -7 -11 12 13 14 15 16 17 18 -19 20 21 22 -23 24 25 0 14 0
534 1 2 3 -5 6 -7 -8 -11 12 13 14 15 16 17 18 -19 20 21 22 -23 24 25 0 20 0
535 1 2 3 -4 -5 6 -7 8 -11 12 13 14 15 16 17 18 -19 20 21 22 -23 24 25 0 15 0
536 1 2 3 4 -5 6 -7 8 -9 -11 12 13 14 15 16 17 18 -19 20 21 22 -23 24 25 0 21 0
537 1 2 3 4 -5 6 -7 8 9 -10 -11 12 13 14 15 16 17 18 -19 20 21 22 -23 24 25 0 22 0
538 1 2 5 6 -11 12 13 14 15 16 17 18 -19 20 21 22 -23 24 25 0 2 5 22 0
539 1 -2 5 6 -7 -11 12 13 14 15 16 17 18 -19 20 21 22 -23 24 25 0 22 5 0
540 1 -2 -3 5 6 7 -11 12 13 14 15 16 17 18 -19 20 21 22 -23 24 25 0 10 0
541 1 -2 3 5 6 7 -8 -11 12 13 14 15 16 17 18 -19 20 21 22 -23 24 25 0 24 5 0
542 1 -2 3 -4 5 6 7 8 -11 12 13 14 15 16 17 18 -19 20 21 22 -23 24 25 0 11 0
543 1 -2 3 4 5 6 7 8 -9 -11 12 13 14 15 16 17 18 -19 20 21 22 -23 24 25 0 25 5 0
544 1 -2 3 4 5 6 7 8 9 10 -11 12 13 14 15 16 17 18 -19 20 21 22 -23 24 25 0 5 0
545 1 6 -11 12 13 14 15 16 17 18 -19 20 -21 23 -25 0 49 0
546 1 6 -11 12 13 14 15 16 17 18 -19 20 21 -22 23 -25 0 52 0
547 1 6 -11 12 13 14 15 16 17 18 -19 20 21 22 23 -24 -25 0 55 0
548 1 -5 6 -11 12 13 14 15 16 17 18 -19 20 21 22 23 24 -25 0 12 14 3 2 20 0
549 1 -2 -3 5 6 -11 12 13 14 15 16 17 18 -19 20 21 22 23 24 -25 0 10 0
550 1 2 -3 5 6 7 -11 12 13 14 15 16 17 18 -19 20 21 22 23 24 -25 0 2 0
551 1 2 -3 5 6 -7 -8 -11 12 13 14 15 16 17 18 -19 20 21 22 23 24 -25 0 20 0
552 1 2 -3 -4 5 6 -7 8 -11 12 13 14 15 16 17 18 -19 20 21 22 23 24 -25 0 13 0
553 1 2 -3 4 5 6 -7 8 -9 -11 12 13 14 15 16 17 18 -19 20 21 22 23 24 -25 0 21 0
554 1 2 -3 4 5 6 -7 8 9 -10 -11 12 13 14 15 16 17 18 -19 20 21 22 23 24 -25 0 22 0
555 1 2 3 5 6 -11 12 13 14 15 16 17 18 -19 20 21 22 23 24 -25 0 2 3 20 0
556 1 -2 3 5 6 -7 -11 12 13 14 15 16 17 18 -19 20 21 22 23 24 -25 0 20 3 0
557 1 -2 3 5 6 7 8 -11 12 13 14 15 16 17 18 -19 20 21 22 23 24 -25 0 3 0
558 1 -2 3 -4 5 6 7 -8 -11 12 13 14 15 16 17 18 -19 20 21 22 23 24 -25 0 11 0
559 1 -2 3 4 5 6 7 -8 -9 -11 12 13 14 15 16 17 18 -19 20 21 22 23 24 -25 0 23 0
560 1 -2 3 4 5 6 7 -8 9 -10 -11 12 13 14 15 16 17 18 -19 20 21 22 23 24 -25 0 24 0
561 1 -5 6 -11 12 13 14 15 16 17 18 -19 20 -21 23 25 0 46 12 14 3 2 20 0
562 1 -2 -5 6 -11 12 13 14 15 16 17 18 -19 20 21 23 25 0 12 0
563 1 2 -5 6 -7 -11 12 13 14 15 16 17 18 -19 20 21 23 25 0 20 14 3 0
564 1 2 -5 6 7 -11 12 13 14 15 16 17 18 -19 20 21 22 23 25 0 2 0
565 1 2 -3 -5 6 7 -11 12 13 14 15 16 17 18 -19 20 21 -22 23 25 0 14 0
566 1 2 3 -5 6 7 8 -11 12 13 14 15 16 17 18 -19 20 21 -22 23 25 0 3 0
567 1 2 3 -4 -5 6 7 -8 -11 12 13 14 15 16 17 18 -19 20 21 -22 23 25 0 15 0
568 1 2 3 4 -5 6 7 -8 -9 -11 12 13 14 15 16 17 18 -19 20 21 -22 23 25 0 23 0
569 1 2 3 4 -5 6 7 -8 9 -11 12 13 14 15 16 17 18 -19 20 21 -22 23 -24 25 0 51 0
570 1 2 3 4 -5 6 7 -8 9 -10 -11 12 13 14 15 16 17 18 -19 20 21 -22 23 24 25 0 24 0
571 1 5 6 -11 12 13 14 15 16 17 18 -19 20 -21 23 25 0 46 5 22 24 2 3 10 0
572 1 -2 5 6 -11 12 13 14 15 16 17 18 -19 20 21 23 25 0 10 5 3 24 0
573 1 2 5 6 -7 -11 12 13 14 15 16 17 18 -19 20 21 23 25 0 22 5 0
574 1 2 5 6 7 -11 12 13 14 15 16 17 18 -19 20 21 22 23 25 0 2 0
575 1 2 3 5 6 7 -11 12 13 14 15 16 17 18 -19 20 21 -22 23 25 0 3 5 24 0
576 1 2 -3 5 6 7 -8 -11 12 13 14 15 16 17 18 -19 20 21 -22 23 25 0 24 5 0
577 1 2 -3 -4 5 6 7 8 -11 12 13 14 15 16 17 18 -19 20 21 -22 23 25 0 13 0
578 1 2 -3 4 5 6 7 8 -9 -11 12 13 14 15 16 17 18 -19 20 21 -22 23 25 0 25 5 0
579 1 2 -3 4 5 6 7 8 9 -11 12 13 14 15 16 17 18 -19 20 21 -22 23 -24 25 0 51 0
580 1 2 -3 4 5 6 7 8 9 10 -11 12 13 14 15 16 17 18 -19 20 21 -22 23 24 25 0 5 0
581 1 -2 -4 6 -11 12 13 14 15 19 0 11 0
582 1 2 -3 -4 6 -11 12 13 14 15 19 0 13 0
583 1 2 3 -4 -5 6 -11 12 13 14 15 19 0 15 0
584 1 2 3 -4 5 6 -11 12 13 14 15 19 -21 -23 0 47 0
585 1 2 3 -4 5 6 -11 12 13 14 15 19 21 -22 -23 0 50 0
586 1 2 3 -4 5 6 -11 12 13 14 15 19 21 22 -23 -24 0 53 0
587 1 2 3 -4 5 6 -11 12 13 14 15 19 21 22 -23 24 -25 0 54 0
588 1 2 3 -4 5 6 -11 12 13 14 15 -16 -17 19 21 22 -23 24 25 0 36 0
589 1 2 3 -4 5 6 -7 -11 12 13 14 15 16 -17 19 21 22 -23 24 25 0 42 22 5 0
590 1 2 3 -4 5 6 7 -8 -11 12 13 14 15 16 -17 19 21 22 -23 24 25 0 42 24 5 0
591 1 2 3 -4 5 6 7 8 -11 12 13 14 15 16 -17 -18 19 21 22 -23 24 25 0 40 0
592 1 2 3 -4 5 6 7 8 -9 -11 12 13 14 15 16 -17 18 19 21 22 -23 24 25 0 42 25 5 0
593 1 2 3 -4 5 6 7 8 9 10 -11 12 13 14 15 16 -17 18 19 21 22 -23 24 25 0 42 5 0
594 1 2 3 -4 5 6 7 8 9 -10 -11 12 13 14 15 16 -17 18 19 -20 21 22 -23 24 25 0 42 0
595 1 2 3 -4 5 6 -11 12 13 14 15 -16 17 19 21 22 -23 24 25 0 39 5 2 22 0
596 1 2 3 -4 5 6 7 -11 12 13 14 15 16 17 19 21 22 -23 24 25 0 2 0
597 1 2 3 -4 5 6 -7 -8 -11 12 13 14 15 16 17 19 21 22 -23 24 25 0 20 0
598 1 2 3 -4 5 6 -7 8 -11 12 13 14 15 16 17 -18 19 21 22 -23 24 25 0 44 22 5 0
599 1 2 3 -4 5 6 -7 8 -9 -11 12 13 14 15 16 17 18 19 21 22 -23 24 25 0 21 0
600 1 2 3 -4 5 6 -7 8 9 -10 -11 12 13 14 15 16 17 18 19 21 22 -23 24 25 0 22 0
601 1 2 3 -4 5 6 -7 8 9 10 -11 12 13 14 15 16 17 18 19 20 21 22 -23 24 25 0 5 0
602 1 2 3 -4 5 6 -11 12 13 14 15 19 -21 23 -25 0 49 0
603 1 2 3 -4 5 6 -11 12 13 14 15 19 21 -22 23 -25 0 52 0
604 1 2 3 -4 5 6 -11 12 13 14 15 19 21 22 23 -24 -25 0 55 0
605 1 2 3 -4 5 6 -11 12 13 14 15 -16 -17 19 21 22 23 24 -25 0 36 0
606 1 2 3 -4 5 6 -7 -11 12 13 14 15 16 -17 19 21 22 23 24 -25 0 40 20 3 0
607 1 2 3 -4 5 6 7 8 -11 12 13 14 15 16 -17 19 21 22 23 24 -25 0 40 3 0
608 1 2 3 -4 5 6 7 -8 -11 12 13 14 15 16 -17 -18 19 21 22 23 24 -25 0 40 0
609 1 2 3 -4 5 6 7 -8 -9 -11 12 13 14 15 16 -17 18 19 21 22 23 24 -25 0 23 0
610 1 2 3 -4 5 6 7 -8 9 -10 -11 12 13 14 15 16 -17 18 19 21 22 23 24 -25 0 24 0
611 1 2 3 -4 5 6 7 -8 9 10 -11 12 13 14 15 16 -17 18 19 -20 21 22 23 24 -25 0 42 0
612 1 2 3 -4 5 6 -11 12 13 14 15 -16 17 19 21 22 23 24 -25 0 37 2 3 20 0
613 1 2 3 -4 5 6 7 -11 12 13 14 15 16 17 19 21 22 23 24 -25 0 2 0
614 1 2 3 -4 5 6 -7 -8 -11 12 13 14 15 16 17 19 21 22 23 24 -25 0 20 0
615 1 2 3 -4 5 6 -7 8 -11 12 13 14 15 16 17 18 19 21 22 23 24 -25 0 3 0
616 1 2 3 -4 5 6 -7 8 -9 -11 12 13 14 15 16 17 -18 19 21 22 23 24 -25 0 21 0
617 1 2 3 -4 5 6 -7 8 9 -10 -11 12 13 14 15 16 17 -18 19 21 22 23 24 -25 0 22 0
618 1 2 3 -4 5 6 -7 8 9 10 -11 12 13 14 15 16 17 -18 19 -20 21 22 23 24 -25 0 44 0
619 -18 2 5 12 15 22 25 0 40 44 2 5 22 0
